p cnf 18 48
4 8 13 0
7 12 18 0
11 17 24 0
16 23 31 0
22 30 39 0
29 38 48 0
-4 -8 0
-4 -13 0
-7 -12 0
-7 -18 0
-11 -17 0
-11 -24 0
-16 -23 0
-16 -31 0
-22 -30 0
-22 -39 0
-29 -38 0
-29 -48 0
-4 -7 0
-8 -12 0
-13 -18 0
-4 -11 0
-8 -17 0
-13 -24 0
-4 -16 0
-8 -23 0
-13 -31 0
-4 -29 0
-8 -38 0
-13 -48 0
-7 -11 0
-12 -17 0
-18 -24 0
-7 -22 0
-12 -30 0
-18 -39 0
-7 -29 0
-12 -38 0
-18 -48 0
-11 -16 0
-17 -23 0
-24 -31 0
-16 -29 0
-23 -38 0
-31 -48 0
-22 -29 0
-30 -38 0
-39 -48 0
